(set-logic HORN)
(declare-datatypes ((Nat_1 0)) (((Z_1 ) (S_1 (unS_0 Nat_1)))))
(declare-fun diseqNat_0 (Nat_1 Nat_1) Bool)
(declare-fun unS_1 (Nat_1 Nat_1) Bool)
(declare-fun isZ_0 (Nat_1) Bool)
(declare-fun isS_0 (Nat_1) Bool)
(assert (forall ((x_37 Nat_1) (x_36 Nat_1))
	(=> (= x_37 (S_1 x_36))
	    (unS_1 x_36 x_37))))
(assert (isZ_0 Z_1))
(assert (forall ((x_38 Nat_1))
	(isS_0 (S_1 x_38))))
(assert (forall ((x_39 Nat_1))
	(diseqNat_0 Z_1 (S_1 x_39))))
(assert (forall ((x_40 Nat_1))
	(diseqNat_0 (S_1 x_40) Z_1)))
(assert (forall ((x_41 Nat_1) (x_42 Nat_1))
	(=> (diseqNat_0 x_41 x_42)
	    (diseqNat_0 (S_1 x_41) (S_1 x_42)))))
(declare-fun add_0 (Nat_1 Nat_1 Nat_1) Bool)
(declare-fun minus_0 (Nat_1 Nat_1 Nat_1) Bool)
(declare-fun le_0 (Nat_1 Nat_1) Bool)
(declare-fun ge_0 (Nat_1 Nat_1) Bool)
(declare-fun lt_0 (Nat_1 Nat_1) Bool)
(declare-fun gt_0 (Nat_1 Nat_1) Bool)
(declare-fun mult_0 (Nat_1 Nat_1 Nat_1) Bool)
(declare-fun div_0 (Nat_1 Nat_1 Nat_1) Bool)
(declare-fun mod_0 (Nat_1 Nat_1 Nat_1) Bool)
(assert (forall ((y_6 Nat_1))
	(add_0 y_6 Z_1 y_6)))
(assert (forall ((x_34 Nat_1) (y_6 Nat_1) (r_0 Nat_1))
	(=> (add_0 r_0 x_34 y_6)
	    (add_0 (S_1 r_0) (S_1 x_34) y_6))))
(assert (forall ((y_6 Nat_1))
	(minus_0 Z_1 Z_1 y_6)))
(assert (forall ((x_34 Nat_1) (y_6 Nat_1) (r_0 Nat_1))
	(=> (minus_0 r_0 x_34 y_6)
	    (minus_0 (S_1 r_0) (S_1 x_34) y_6))))
(assert (forall ((y_6 Nat_1))
	(le_0 Z_1 y_6)))
(assert (forall ((x_34 Nat_1) (y_6 Nat_1))
	(=> (le_0 x_34 y_6)
	    (le_0 (S_1 x_34) (S_1 y_6)))))
(assert (forall ((y_6 Nat_1))
	(ge_0 y_6 Z_1)))
(assert (forall ((x_34 Nat_1) (y_6 Nat_1))
	(=> (ge_0 x_34 y_6)
	    (ge_0 (S_1 x_34) (S_1 y_6)))))
(assert (forall ((y_6 Nat_1))
	(lt_0 Z_1 (S_1 y_6))))
(assert (forall ((x_34 Nat_1) (y_6 Nat_1))
	(=> (lt_0 x_34 y_6)
	    (lt_0 (S_1 x_34) (S_1 y_6)))))
(assert (forall ((y_6 Nat_1))
	(gt_0 (S_1 y_6) Z_1)))
(assert (forall ((x_34 Nat_1) (y_6 Nat_1))
	(=> (gt_0 x_34 y_6)
	    (gt_0 (S_1 x_34) (S_1 y_6)))))
(assert (forall ((y_6 Nat_1))
	(mult_0 Z_1 Z_1 y_6)))
(assert (forall ((x_34 Nat_1) (y_6 Nat_1) (r_0 Nat_1) (z_4 Nat_1))
	(=>	(and (mult_0 r_0 x_34 y_6)
			(add_0 z_4 r_0 y_6))
		(mult_0 z_4 (S_1 x_34) y_6))))
(assert (forall ((x_34 Nat_1) (y_6 Nat_1))
	(=> (lt_0 x_34 y_6)
	    (div_0 Z_1 x_34 y_6))))
(assert (forall ((x_34 Nat_1) (y_6 Nat_1) (r_0 Nat_1) (z_4 Nat_1))
	(=>	(and (ge_0 x_34 y_6)
			(minus_0 z_4 x_34 y_6)
			(div_0 r_0 z_4 y_6))
		(div_0 (S_1 r_0) x_34 y_6))))
(assert (forall ((x_34 Nat_1) (y_6 Nat_1))
	(=> (lt_0 x_34 y_6)
	    (mod_0 x_34 x_34 y_6))))
(assert (forall ((x_34 Nat_1) (y_6 Nat_1) (r_0 Nat_1) (z_4 Nat_1))
	(=>	(and (ge_0 x_34 y_6)
			(minus_0 z_4 x_34 y_6)
			(mod_0 r_0 z_4 y_6))
		(mod_0 r_0 x_34 y_6))))
(declare-datatypes ((Nat_0 0)) (((Z_0 ) (S_0 (projS_0 Nat_0)))))
(declare-fun diseqNat_1 (Nat_0 Nat_0) Bool)
(declare-fun projS_1 (Nat_0 Nat_0) Bool)
(declare-fun isZ_1 (Nat_0) Bool)
(declare-fun isS_1 (Nat_0) Bool)
(assert (forall ((x_45 Nat_0) (x_44 Nat_0))
	(=> (= x_45 (S_0 x_44))
	    (projS_1 x_44 x_45))))
(assert (isZ_1 Z_0))
(assert (forall ((x_46 Nat_0))
	(isS_1 (S_0 x_46))))
(assert (forall ((x_47 Nat_0))
	(diseqNat_1 Z_0 (S_0 x_47))))
(assert (forall ((x_48 Nat_0))
	(diseqNat_1 (S_0 x_48) Z_0)))
(assert (forall ((x_49 Nat_0) (x_50 Nat_0))
	(=> (diseqNat_1 x_49 x_50)
	    (diseqNat_1 (S_0 x_49) (S_0 x_50)))))
(declare-datatypes ((list_0 0)) (((nil_0 ) (cons_0 (head_0 Nat_0) (tail_0 list_0)))))
(declare-fun diseqlist_0 (list_0 list_0) Bool)
(declare-fun head_1 (Nat_0 list_0) Bool)
(declare-fun tail_1 (list_0 list_0) Bool)
(declare-fun isnil_0 (list_0) Bool)
(declare-fun iscons_0 (list_0) Bool)
(assert (forall ((x_54 list_0) (x_52 Nat_0) (x_53 list_0))
	(=> (= x_54 (cons_0 x_52 x_53))
	    (head_1 x_52 x_54))))
(assert (forall ((x_54 list_0) (x_52 Nat_0) (x_53 list_0))
	(=> (= x_54 (cons_0 x_52 x_53))
	    (tail_1 x_53 x_54))))
(assert (isnil_0 nil_0))
(assert (forall ((x_55 Nat_0) (x_56 list_0))
	(iscons_0 (cons_0 x_55 x_56))))
(assert (forall ((x_57 Nat_0) (x_58 list_0))
	(diseqlist_0 nil_0 (cons_0 x_57 x_58))))
(assert (forall ((x_59 Nat_0) (x_60 list_0))
	(diseqlist_0 (cons_0 x_59 x_60) nil_0)))
(assert (forall ((x_61 Nat_0) (x_62 list_0) (x_63 Nat_0) (x_64 list_0))
	(=> (diseqNat_1 x_61 x_63)
	    (diseqlist_0 (cons_0 x_61 x_62) (cons_0 x_63 x_64)))))
(assert (forall ((x_61 Nat_0) (x_62 list_0) (x_63 Nat_0) (x_64 list_0))
	(=> (diseqlist_0 x_62 x_64)
	    (diseqlist_0 (cons_0 x_61 x_62) (cons_0 x_63 x_64)))))
(declare-fun x_0 (Bool Nat_0 Nat_0) Bool)
(assert (forall ((x_1 Nat_0) (y_0 Nat_0) (x_2 Nat_0) (y_1 Nat_0) (x_9 Bool) (x_10 Bool))
	(=>	(and (= x_9 x_10)
			(x_0 x_10 x_2 y_1)
			(= x_1 (S_0 x_2))
			(= y_0 (S_0 y_1)))
		(x_0 x_9 x_1 y_0))))
(assert (forall ((x_1 Nat_0) (y_0 Nat_0) (x_2 Nat_0) (x_11 Bool))
	(=>	(and (= x_11 false)
			(= x_1 (S_0 x_2))
			(= y_0 Z_0))
		(x_0 x_11 x_1 y_0))))
(assert (forall ((x_1 Nat_0) (y_0 Nat_0) (z_0 Nat_0) (x_12 Bool))
	(=>	(and (= x_12 false)
			(= x_1 Z_0)
			(= y_0 (S_0 z_0)))
		(x_0 x_12 x_1 y_0))))
(assert (forall ((x_1 Nat_0) (y_0 Nat_0) (x_13 Bool))
	(=>	(and (= x_13 true)
			(= x_1 Z_0)
			(= y_0 Z_0))
		(x_0 x_13 x_1 y_0))))
(declare-fun elem_0 (Bool Nat_0 list_0) Bool)
(assert (forall ((x_3 Nat_0) (y_2 list_0) (z_1 Nat_0) (xs_0 list_0) (x_15 Bool) (x_14 Bool))
	(=>	(and (= x_15 true)
			(= y_2 (cons_0 z_1 xs_0))
			(= x_14 true)
			(x_0 x_14 x_3 z_1))
		(elem_0 x_15 x_3 y_2))))
(assert (forall ((x_3 Nat_0) (y_2 list_0) (z_1 Nat_0) (xs_0 list_0) (x_17 Bool) (x_18 Bool) (x_16 Bool))
	(=>	(and (= x_17 x_18)
			(elem_0 x_18 x_3 xs_0)
			(= y_2 (cons_0 z_1 xs_0))
			(= x_16 false)
			(x_0 x_16 x_3 z_1))
		(elem_0 x_17 x_3 y_2))))
(assert (forall ((x_3 Nat_0) (y_2 list_0) (x_19 Bool))
	(=>	(and (= x_19 false)
			(= y_2 nil_0))
		(elem_0 x_19 x_3 y_2))))
(declare-fun x_4 (Bool Nat_0 Nat_0) Bool)
(assert (forall ((x_5 Nat_0) (y_3 Nat_0) (z_2 Nat_0) (x_6 Nat_0) (x_20 Bool) (x_21 Bool))
	(=>	(and (= x_20 x_21)
			(x_4 x_21 x_6 z_2)
			(= y_3 (S_0 z_2))
			(= x_5 (S_0 x_6)))
		(x_4 x_20 x_5 y_3))))
(assert (forall ((x_5 Nat_0) (y_3 Nat_0) (z_2 Nat_0) (x_22 Bool))
	(=>	(and (= x_22 true)
			(= y_3 (S_0 z_2))
			(= x_5 Z_0))
		(x_4 x_22 x_5 y_3))))
(assert (forall ((x_5 Nat_0) (y_3 Nat_0) (x_23 Bool))
	(=>	(and (= x_23 false)
			(= y_3 Z_0))
		(x_4 x_23 x_5 y_3))))
(declare-fun ins_0 (list_0 Nat_0 list_0) Bool)
(assert (forall ((x_7 Nat_0) (y_4 list_0) (z_3 Nat_0) (xs_1 list_0) (x_25 list_0) (x_24 Bool))
	(=>	(and (= x_25 (cons_0 x_7 (cons_0 z_3 xs_1)))
			(= y_4 (cons_0 z_3 xs_1))
			(= x_24 true)
			(x_4 x_24 x_7 z_3))
		(ins_0 x_25 x_7 y_4))))
(assert (forall ((x_7 Nat_0) (y_4 list_0) (z_3 Nat_0) (xs_1 list_0) (x_27 list_0) (x_28 list_0) (x_26 Bool))
	(=>	(and (= x_27 (cons_0 z_3 x_28))
			(ins_0 x_28 x_7 xs_1)
			(= y_4 (cons_0 z_3 xs_1))
			(= x_26 false)
			(x_4 x_26 x_7 z_3))
		(ins_0 x_27 x_7 y_4))))
(assert (forall ((x_7 Nat_0) (y_4 list_0) (x_29 list_0))
	(=>	(and (= x_29 (cons_0 x_7 nil_0))
			(= y_4 nil_0))
		(ins_0 x_29 x_7 y_4))))
(assert (forall ((x_8 Nat_0) (y_5 Nat_0) (xs_2 list_0) (x_30 list_0) (x_31 Bool) (x_32 Bool) (x_33 Bool))
	(=>	(and (not (= x_31 x_32))
			(= x_33 true)
			(ins_0 x_30 y_5 xs_2)
			(elem_0 x_31 x_8 x_30)
			(elem_0 x_32 x_8 xs_2)
			(x_4 x_33 x_8 y_5))
		false)))
(check-sat)
